191
Lattice="12.4187 0.0 0.0 0.0 12.4187 0.0 0.0 0.0 12.4187" Properties=species:S:1:pos:R:3 pbc="T T T"
O        2.14810000       2.51115000       5.63025000
O        0.40032900      10.14000000       8.22987000
O        2.66932000       8.05515000      11.34550000
O       11.49870000      11.04350000       4.03976000
O        5.94733000       5.20960000      10.29870000
O        3.03019000       2.06137000      10.62110000
O       10.26050000       4.33235000       2.02643000
O        0.34443400       3.89228000      10.15710000
O        7.08504000       0.23315300       8.20912000
O        1.57980000       8.67691000       6.34765000
O        9.97659000      12.30550000       9.26597000
O        0.08522250       6.31748000       6.27890000
O       10.81600000       8.23936000       4.19109000
O        6.70662000       1.98965000      12.06020000
O        3.84038000       8.21662000       1.44483000
O        7.44683000       2.25125000       4.36056000
O        4.48408000      10.91560000       2.23440000
O        4.67989000       3.35149000       8.76072000
O        8.59310000       9.04563000       8.30417000
O        8.60392000       2.99566000      10.23810000
O       10.92890000       1.68118000       1.12745000
O        8.98958000       5.08773000      12.02810000
O        0.47679600       1.80702000       8.04173000
O       11.92400000       6.42983000       2.31199000
O        7.34307000       6.53041000       4.28685000
O        3.65176000       4.83762000       4.98399000
O        8.18857000       0.88038100       2.07595000
O        8.14667000       9.33483000       0.16386500
O        0.85747800      11.94070000      10.24460000
O        5.49077000       8.21893000       8.16769000
O        2.21151000       4.73799000       7.87938000
O        4.77435000       2.67066000       3.74015000
O       10.83370000       2.63306000       6.47561000
O        2.04455000       2.37920000       1.23102000
O        7.33649000      10.66870000       2.38528000
O       10.61160000      10.37010000       0.85787400
O        5.97897000       1.86905000       6.47798000
O        2.54662000       5.20459000      11.63960000
O        3.43490000       0.13669000       4.32256000
O        6.05550000       8.83344000      10.60960000
O        3.77398000      11.78920000       6.85695000
O        8.33111000       6.21429000       8.95537000
O        2.90489000       7.53344000       8.35585000
O       10.53230000      10.07810000       6.56360000
O        0.59079300      12.29560000       1.56473000
O        5.95360000      11.46910000      10.21440000
O        2.66256000       9.11730000       4.00717000
O        8.87494000       4.53245000       4.09425000
O        8.27812000       3.98594000       7.41735000
O        6.46651000      10.36250000       6.54291000
O        4.59423000      12.39350000      12.16290000
O       11.12000000       9.07218000      10.13020000
O       11.03900000       7.07926000      12.19260000
O        8.77338000      12.13170000      11.56180000
O        8.29585000       9.11566000       4.66036000
O        5.97190000       5.97705000       6.57786000
O       11.37230000       6.44040000       8.86775000
O        2.20944000       5.89410000       2.71575000
O       11.39870000       1.50370000      10.91120000
O        4.62458000       3.34963000       0.93136400
O        9.91652000       0.31625100       5.24888000
O        0.89166700      10.02720000      12.04210000
O        0.08989850       4.04325000       4.39726000
Cl       6.45398000       6.00679000       1.31140000
H        1.54345000       4.98436000       7.20554000
H       10.31410000       1.89859000       6.07642000
H        6.34839000      10.78470000       2.38698000
H        0.62728900       7.07953000       6.31096000
H        5.03069000       4.05658000       9.39927000
H        3.88873000       0.63858000      12.15840000
H        3.74537000      12.19360000       7.73147000
H        6.30943000       6.25311000       5.67971000
H        1.98071000       8.70550000       5.42495000
H        9.73526000       4.53361000       1.19139000
H        7.30962000       1.63277000       0.34515200
H        0.86320300      10.74560000       8.84820000
H        2.97934000       2.60492000       1.26430000
H        3.71229000       2.55526000      10.09320000
H        0.67009500       0.97518400       8.55656000
H        9.06096000       0.95385600       1.68353000
H        6.21560000       1.21610000      11.68940000
H        2.82135000       2.77939000      11.21300000
H       10.95780000       7.73920000      11.47000000
H       10.29340000       8.88447000       9.66826000
H       11.81490000       6.82790000       1.34960000
H        9.54153000      12.06000000      10.12700000
H        1.72421000       4.94595000      11.15430000
H        8.39813000       5.42626000       4.16554000
H        3.80673000      11.17310000       2.87268000
H        6.88234000       5.38003000      10.08910000
H        7.00685000       1.83551000       5.12829000
H       11.03350000       4.93620000       2.15641000
H        9.19035000       9.60496000       7.73107000
H        2.23486000       8.46091000       7.04541000
H        7.11566000       6.36213000       3.33267000
H       12.41310000      11.17880000       3.74070000
H       10.81810000       1.23581000      10.21450000
H        2.92782000       8.38744000       3.42163000
H        0.13067000       0.03992360      10.58730000
H        4.07848000       3.93355000       8.24620000
H        9.27443000       0.77295300       4.73231000
H        4.18295000       4.06308000       4.60571000
H        6.38331000       1.26723000       7.18081000
H        4.20066000      10.00090000       1.96626000
H       11.37830000      10.10530000       4.30904000
H        7.74649000       9.49799000       8.14218000
H       11.70560000       7.06756000       9.48174000
H       10.94550000       2.62406000       1.45329000
H        2.53881000       7.06556000      11.64370000
H        0.13425900       4.74766000       5.05330000
H        4.70075000       2.79436000       2.73624000
H        5.73985000       2.60024000       3.75854000
H       11.36050000      10.10290000       0.28116800
H        2.61391000       5.69276000       3.64916000
H        9.05708000      11.48140000      12.21260000
H        1.13987000      10.58300000       0.39338800
H        5.43244000       2.92078000       0.57426600
H        6.81927000      11.19170000       6.94225000
H        9.48774000       4.55347000       3.17474000
H        3.93518000       1.02269000       4.25436000
H        1.67252000      12.31260000      10.60690000
H        5.44868000       2.51372000       6.94649000
H        4.61175000      11.87780000       0.61577000
H        2.41980000       1.60677000       5.38120000
H        7.16386000       9.94284000       5.89228000
H        6.00958000       8.98351000       7.68531000
H       11.30890000       7.76190000       4.96312000
H        4.64741000       7.61465000       1.44175000
H       11.41680000       3.02955000       5.79448000
H        7.85130000      11.94510000      11.41840000
H       10.35130000      10.85810000       6.10213000
H        2.47977000       4.70257000       0.03800020
H        3.52621000       9.45770000       4.33591000
H       11.94650000       1.96856000       7.66936000
H        5.90498000      10.51840000      10.00360000
H        7.97406000       9.57045000       3.84462000
H        8.14230000       3.02935000       9.34294000
H        5.25592000       8.63523000      11.10640000
H        7.91133000       2.45782000      10.74650000
H        8.14648000       5.54818000      12.33040000
H        7.65345000       3.81348000       6.72237000
H        5.83632000       8.41845000       9.74437000
H        3.53705000       8.08310000       0.48333900
H        3.66354000      12.31500000       5.23822000
H        2.56822000       5.55090000       8.24345000
H        1.86528000       8.56175000      11.66370000
H       12.19420000       0.42788800       1.39497000
H        5.04796000       4.21735000       1.21219000
H        5.81637000       5.27141000      11.29290000
H        6.62918000      12.23000000       9.06127000
H       12.10550000       4.56757000       9.89169000
H       11.25820000      10.32520000       7.16135000
H        0.82968000       3.42067000       4.60336000
H        7.68958000       7.48412000       4.26912000
H        9.19240000       3.78349000       7.16508000
H        8.76162000       4.37634000      11.45730000
H       11.05970000      10.40270000       1.75373000
H       11.95420000       2.27183000      10.55770000
H       11.65080000       9.29866000       9.33900000
H       10.18590000      11.50400000       8.73946000
H        9.26823000       8.98207000       4.43503000
H        7.97184000       0.38447800       8.57707000
H        0.81537700      10.62160000      11.28600000
H        7.61139000      10.21320000       1.56345000
H        8.25721000       5.66488000       8.16859000
H        1.04318000       9.84740000       7.52169000
H        8.10731000       7.05496000       8.54133000
H        7.47354000       1.56179000       3.72517000
H        7.67383000       8.82208000      11.84090000
H        2.56677000       7.76842000       9.28306000
H        4.65704000      11.29940000       6.89180000
H        7.99560000      12.28700000       2.16546000
H        1.77425000       2.44051000       6.56632000
H        1.60611000       3.01928000       1.80510000
H        5.05909000       5.65777000       6.30785000
H        1.30589000       0.56587300       1.45217000
H       10.34280000       6.49291000       9.01632000
H       10.24440000       6.48552000      12.08820000
H        0.99939500       3.77781000       9.44749000
H        5.17769000      11.75710000      10.78180000
H        3.83895000       7.92587000       8.34528000
H        2.92591000       6.27888000       2.20776000
H       10.96980000       7.67407000       3.39296000
H       10.97210000       1.66682000       0.07442630
H        0.42341200       6.23391000       2.58408000
H        5.66430000       7.49338000       7.54875000
H        9.12695000       9.18926000       0.11642400
H        8.27500000       3.71813000       4.13379000
H        2.93291000       4.44283000       5.53500000
H       10.50540000      12.17950000       4.69054000
H       11.91460000       6.40948000       7.07716000
