167
Lattice="11.76 0.0 0.0 0.0 11.76 0.0 0.0 0.0 11.76" Properties=species:S:1:pos:R:3 charge=-1 spin=1 qm_charge=-1 qm_spin=1 pbc="T T T"
O        4.74639637       6.31316687       4.49323986
O        3.91353269       4.41017915       5.43625529
O        7.19593061       6.33545646       4.53495033
O        8.20212644       4.82995163       5.92467498
C        5.13996304       6.02244437       6.74134092
C        6.46996304       6.15782052       6.80606548
C        4.52466304       5.46191856       5.52182818
C        7.37156304       5.74110517       5.63519277
H        4.49986304       6.35684206       7.54932708
H        6.91226304       6.59180325       7.70006228
H        5.70373566       6.45931195       4.33706282
O        2.03416267       2.37795615       5.33161603
H        2.30586267       1.47357615       5.08256603
H        1.66031267       2.30731615       6.26768603
O        0.37909516       9.60216448       7.79334964
H        0.84196916      10.20776448       8.41167964
H        1.02194616       9.30956448       7.08516964
O        2.52773666       7.62789696      10.74372358
H        2.39722666       6.63830696      11.04192358
H        1.72369666       8.13449696      11.06192358
O       10.88879770      10.45774195       3.82548718
H        0.04319770      10.59304195       3.52642718
H       10.76839770       9.51954195       4.09476718
O        5.63187780       4.93327772       9.75244687
H        6.56688780       5.10370772       9.54284687
H        5.50091780       4.99508772      10.74664687
O        2.86946576       1.95203292      10.05774646
H        3.55156576       2.44592292       9.52984646
H        2.66062576       2.67005292      10.64964646
O        9.71627304       4.10255792       1.91894617
H        9.19103304       4.30381792       1.08390617
H       10.48927304       4.70640792       2.04892617
O        0.32616488       3.68582966       9.61835748
H       11.42853088       4.36111966       9.35294748
H        0.98112588       3.57135966       8.90874748
O        6.70924255       0.22078634       7.77370024
H        6.25338255      11.55893334       8.62585024
H        7.59604255       0.37211134       8.14165024
O        1.49600586       8.21667820       6.01096443
H        1.89691586       8.24526820       5.08826443
H        2.15106586       8.00067820       6.70872443
O        9.44742190      11.65280424       8.77449388
H        9.01236190      11.40730424       9.63552388
H        9.65673190      10.85130424       8.24798388
O        0.08070222       5.98239468       5.94586100
H        0.62276872       6.74444468       5.97792100
H       11.25137972       6.07439468       6.74412100
O       10.24230878       7.80233628       3.96879049
H       10.73520878       7.32487628       4.74082049
H       10.39610878       7.23704628       3.17066049
O        6.35089431       1.88411702      11.42051519
H        6.95389431       1.52723702       0.36416719
H        5.85987431       1.11056702      11.04971519
O        3.63668249       7.78080244       1.36819480
H        4.44371249       7.17883244       1.36511480
H        3.33335249       7.64728244       0.40670380
O        7.05184285       2.13184150       4.12927163
H        6.61186285       1.71610150       4.89700163
H        7.07855285       1.44238150       3.49388163
O        4.24624001      10.33662589       2.11588524
H        3.56889001      10.59412589       2.75416524
H        3.96282001       9.42192589       1.84774524
O        8.13731357       8.56584093       7.86370870
H        8.73456357       9.12517093       7.29060870
H        7.29070357       9.01820093       7.70171870
O        8.14755966       2.83676726       9.69506116
H        7.68593966       2.87045726       8.79990116
H        7.45496966       2.29892726      10.20346116
O       10.34922045       1.59200857       1.06764895
H       10.36582045       2.53488857       1.39348895
H       10.39242045       1.57764857       0.01462525
O        8.51276388       4.81787182      11.39011781
H        7.66966388       5.27832182      11.69241781
H        8.28480388       4.10648182      10.81931781
O        0.45150627       1.71117389       7.61518877
H        0.64480527       0.87933789       8.13001877
H       11.26251027       1.87271389       7.24281877
O       11.29153937       6.08878553       2.18935979
H       11.18243937       6.48685553       1.22696979
H        0.44965137       5.89286553       2.46144979
O        7.75424023       0.83368473       1.96583958
H        8.62663023       0.90715973       1.57341958
H        7.56127023      11.58160373       2.05534958
O        7.71456265       8.83970148       0.15517344
H        7.24172265       8.32695148      11.17350844
H        8.69484265       8.69413148       0.10773244
O        0.81199653      11.30735359       9.70121639
H        0.08518853       0.06527719      10.04391639
H        1.62703853      11.67925359      10.06351639
O        2.09420935       4.48668237       7.46144997
H        1.42614935       4.73305237       6.78760997
H        2.45091935       5.29959237       7.82551997
O        4.52111380       2.52900558       3.54176878
H        4.44751380       2.65270558       2.53785878
H        5.48661380       2.45858558       3.56015878
O       10.25906995       2.49339992       6.13213731
H        9.73946995       1.75892992       5.73294731
H       10.84216995       2.88988992       5.45100731
O        1.93610507       2.25300490       1.16572549
H        2.87089507       2.47872490       1.19900549
H        1.49766507       2.89308490       1.73980549
O        6.94735539      10.10282171       2.25876241
H        5.95925539      10.21882171       2.26046241
H        7.22225539       9.64732171       1.43693241
O       10.04875035       9.82005975       0.81237152
H       10.79765035       9.55285975       0.23566552
H       10.49685035       9.85265975       1.70822752
O        5.66183958       1.76991376       6.13438160
H        6.06617958       1.16809376       6.83721160
H        5.13154958       2.41458376       6.60289160
O        2.41154478       4.92853345      11.02222423
H        1.58913478       4.66989345      10.53692423
H        2.34469478       4.42651345       0.07932443
O        3.25270954       0.12943983       4.09328719
H        3.75298954       1.01543983       4.02508719
H        3.48134954      11.64904983       5.00894719
O        5.73431035       8.36490570      10.04685643
H        4.93473035       8.16669570      10.54365643
H        5.51513035       7.94991570       9.18162643
O        3.57380441      11.16388930       6.49325066
H        3.54519441      11.56828930       7.36777066
H        4.45686441      10.67408930       6.52810066
O        9.97365650       9.54354771       6.21546023
H        9.79265650      10.32354771       5.75399023
H       10.69955650       9.79064771       6.81321023
O        0.55945676      11.64342934       1.48173519
H       11.50416376       0.43441734       1.31197519
H        1.27455376       0.57240234       1.36917519
O        5.63781523      10.86076771       9.67261823
H        5.58919523       9.91006771       9.46181823
H        4.86190523      11.14876771      10.24001823
O        2.52133521       8.63370949       3.79462578
H        2.78659521       7.90384949       3.20908578
H        3.38498521       8.97410949       4.12336578
O        4.35054755      11.73613663      11.51776788
H        3.64504755       0.63991663      11.51326788
H        4.36806755      11.22043663       0.62933788
O       10.53018432       8.59098270       9.59288428
H        9.70358432       8.40327270       9.13094428
H       11.06098432       8.81746270       8.80168428
O       10.45348064       6.70376912      11.54589257
H       10.37228064       7.36370912      10.82329257
H        9.65888064       6.11002912      11.44149257
O        8.30803134      11.48822276      10.94855081
H        8.59173134      10.83792276      11.59935081
H        7.38595134      11.30162276      10.80515081
O       10.76910208       6.09879488       8.39739586
H       11.10240208       6.72595488       9.01138586
H        9.73960208       6.15130488       8.54596586
O        2.09224914       5.58147117       2.57170396
H        2.49671914       5.38013117       3.50511396
H        2.80871914       5.96625117       2.06371396
O       10.79410180       1.42394228      10.33245928
H       10.21350180       1.15605228       9.63575928
H       11.34960180       2.19207228       9.97895928
O        4.37928775       3.17196235       0.88196354
H        5.18714775       2.74311235       0.52486554
H        4.80266775       4.03968235       1.16278954
O        9.39053808       0.29947674       4.97047427
H        8.74844808       0.75617874       4.45390427
H        9.97941808      11.50402574       4.41213427
O        0.84437211       9.49534750      11.40337523
H        1.09257511      10.05114750       0.41336323
H        0.76808211      10.08974750      10.64727523
O        0.08513020       3.82879206       4.16402503
H        0.12949070       4.53320206       4.82006503
H        0.82491170       3.20621206       4.37012503
